words_hard_train/9655.qaiger
aag 199 31 0 1 168
2
4
8
16
28
36
48
56
68
76
88
96
108
116
130
132
140
144
146
164
166
184
186
204
206
224
226
342
344
360
362
399
6 2 4
10 4 8
12 5 9
14 11 13
18 15 17
20 14 16
22 19 21
24 6 22
26 25 21
30 13 28
32 12 29
34 31 33
38 35 37
40 34 36
42 39 41
44 27 42
46 45 41
50 33 48
52 32 49
54 51 53
58 55 57
60 54 56
62 59 61
64 47 62
66 65 61
70 53 68
72 52 69
74 71 73
78 75 77
80 74 76
82 79 81
84 67 82
86 85 81
90 73 88
92 72 89
94 91 93
98 95 97
100 94 96
102 99 101
104 87 102
106 105 101
110 93 108
112 92 109
114 111 113
118 115 117
120 114 116
122 119 121
124 106 123
126 107 122
128 125 127
134 131 133
136 130 132
138 135 137
142 139 141
148 145 147
150 144 146
152 149 151
154 137 153
156 136 152
158 155 157
160 142 159
162 157 151
168 165 167
170 164 166
172 169 171
174 162 173
176 163 172
178 175 177
180 160 179
182 177 171
188 185 187
190 184 186
192 189 191
194 182 193
196 183 192
198 195 197
200 180 199
202 197 191
208 205 207
210 204 206
212 209 211
214 202 213
216 203 212
218 215 217
220 200 219
222 217 211
228 225 227
230 224 226
232 229 231
234 222 233
236 223 232
238 235 237
240 221 238
242 128 241
244 220 239
246 243 245
248 143 158
250 249 161
252 7 23
254 253 25
256 3 5
258 257 140
260 258 7
262 138 140
264 263 143
266 261 265
268 254 267
270 260 264
272 269 271
274 26 43
276 275 45
278 272 277
280 250 279
282 273 276
284 281 283
286 46 63
288 287 65
290 161 178
292 291 181
294 288 292
296 284 295
298 289 293
300 297 299
302 66 83
304 303 85
306 181 198
308 307 201
310 305 309
312 300 311
314 304 308
316 313 315
318 86 103
320 319 105
322 201 218
324 323 221
326 320 324
328 316 327
330 321 325
332 329 331
334 241 245
336 129 335
338 332 337
340 246 339
346 342 345
348 343 344
350 347 349
352 237 231
354 351 353
356 350 352
358 355 357
364 360 362
366 361 363
368 365 367
370 368 113
372 369 112
374 371 373
376 127 121
378 375 377
380 374 376
382 379 381
384 359 383
386 341 385
388 358 382
390 387 389
392 338 244
394 390 393
396 388 392
398 395 397
i0 1 x2[0]
i1 1 x1[0]
i2 1 x1[1]
i3 1 x2[1]
i4 1 x1[2]
i5 1 x2[2]
i6 1 x1[3]
i7 1 x2[3]
i8 1 x1[4]
i9 1 x2[4]
i10 1 x1[5]
i11 1 x2[5]
i12 1 x1[6]
i13 1 x2[6]
i14 2 y1[1]
i15 2 y2[0]
i16 2 y1[0]
i17 2 y1[2]
i18 2 y2[1]
i19 2 y1[3]
i20 2 y2[2]
i21 2 y1[4]
i22 2 y2[3]
i23 2 y1[5]
i24 2 y2[4]
i25 2 y1[6]
i26 2 y2[5]
i27 2 y1[7]
i28 2 y2[6]
i29 1 x2[7]
i30 1 x1[7]
o0 bv[0]
c
simplified
  >
    add
      2 y1
      << 1
        2 y2
    subtract
      1 x2
      1 x1
