words_hard_train/9655.qaiger.qdimacs
p cnf 199 505
a 1 2 34 4 38 8 44 14 48 18 180 181 54 24 58 28 0
e 3 5 6 7 9 10 11 12 13 15 16 17 19 20 21 22 23 25 26 27 29 30 31 32 33 35 36 37 39 40 41 42 43 45 46 47 49 50 51 52 53 55 56 57 59 60 61 62 63 64 65 66 67 68 69 70 71 72 73 74 75 76 77 78 79 80 81 82 83 84 85 86 87 88 89 90 91 92 93 94 95 96 97 98 99 100 101 102 103 104 105 106 107 108 109 110 111 112 113 114 115 116 117 118 119 120 121 122 123 124 125 126 127 128 129 130 131 132 133 134 135 136 137 138 139 140 141 142 143 144 145 146 147 148 149 150 151 152 153 154 155 156 157 158 159 160 161 162 163 164 165 166 167 168 169 170 171 172 173 174 175 176 177 178 179 182 183 184 185 186 187 188 189 190 191 192 193 194 195 196 197 198 199 0
-1 -2 3 0
1 -3 0
2 -3 0
-2 -4 5 0
2 -5 0
4 -5 0
2 4 6 0
-2 -6 0
-4 -6 0
5 6 7 0
-5 -7 0
-6 -7 0
7 8 9 0
-7 -9 0
-8 -9 0
-7 -8 10 0
7 -10 0
8 -10 0
9 10 11 0
-9 -11 0
-10 -11 0
-3 -11 12 0
3 -12 0
11 -12 0
12 10 13 0
-12 -13 0
-10 -13 0
6 -14 15 0
-6 -15 0
14 -15 0
-6 14 16 0
6 -16 0
-14 -16 0
15 16 17 0
-15 -17 0
-16 -17 0
17 18 19 0
-17 -19 0
-18 -19 0
-17 -18 20 0
17 -20 0
18 -20 0
19 20 21 0
-19 -21 0
-20 -21 0
13 -21 22 0
-13 -22 0
21 -22 0
22 20 23 0
-22 -23 0
-20 -23 0
16 -24 25 0
-16 -25 0
24 -25 0
-16 24 26 0
16 -26 0
-24 -26 0
25 26 27 0
-25 -27 0
-26 -27 0
27 28 29 0
-27 -29 0
-28 -29 0
-27 -28 30 0
27 -30 0
28 -30 0
29 30 31 0
-29 -31 0
-30 -31 0
23 -31 32 0
-23 -32 0
31 -32 0
32 30 33 0
-32 -33 0
-30 -33 0
26 -34 35 0
-26 -35 0
34 -35 0
-26 34 36 0
26 -36 0
-34 -36 0
35 36 37 0
-35 -37 0
-36 -37 0
37 38 39 0
-37 -39 0
-38 -39 0
-37 -38 40 0
37 -40 0
38 -40 0
39 40 41 0
-39 -41 0
-40 -41 0
33 -41 42 0
-33 -42 0
41 -42 0
42 40 43 0
-42 -43 0
-40 -43 0
36 -44 45 0
-36 -45 0
44 -45 0
-36 44 46 0
36 -46 0
-44 -46 0
45 46 47 0
-45 -47 0
-46 -47 0
47 48 49 0
-47 -49 0
-48 -49 0
-47 -48 50 0
47 -50 0
48 -50 0
49 50 51 0
-49 -51 0
-50 -51 0
43 -51 52 0
-43 -52 0
51 -52 0
52 50 53 0
-52 -53 0
-50 -53 0
46 -54 55 0
-46 -55 0
54 -55 0
-46 54 56 0
46 -56 0
-54 -56 0
55 56 57 0
-55 -57 0
-56 -57 0
57 58 59 0
-57 -59 0
-58 -59 0
-57 -58 60 0
57 -60 0
58 -60 0
59 60 61 0
-59 -61 0
-60 -61 0
-53 61 62 0
53 -62 0
-61 -62 0
53 -61 63 0
-53 -63 0
61 -63 0
62 63 64 0
-62 -64 0
-63 -64 0
65 66 67 0
-65 -67 0
-66 -67 0
-65 -66 68 0
65 -68 0
66 -68 0
67 68 69 0
-67 -69 0
-68 -69 0
69 70 71 0
-69 -71 0
-70 -71 0
72 73 74 0
-72 -74 0
-73 -74 0
-72 -73 75 0
72 -75 0
73 -75 0
74 75 76 0
-74 -76 0
-75 -76 0
68 76 77 0
-68 -77 0
-76 -77 0
-68 -76 78 0
68 -78 0
76 -78 0
77 78 79 0
-77 -79 0
-78 -79 0
-71 79 80 0
71 -80 0
-79 -80 0
78 75 81 0
-78 -81 0
-75 -81 0
82 83 84 0
-82 -84 0
-83 -84 0
-82 -83 85 0
82 -85 0
83 -85 0
84 85 86 0
-84 -86 0
-85 -86 0
-81 86 87 0
81 -87 0
-86 -87 0
81 -86 88 0
-81 -88 0
86 -88 0
87 88 89 0
-87 -89 0
-88 -89 0
-80 89 90 0
80 -90 0
-89 -90 0
88 85 91 0
-88 -91 0
-85 -91 0
92 93 94 0
-92 -94 0
-93 -94 0
-92 -93 95 0
92 -95 0
93 -95 0
94 95 96 0
-94 -96 0
-95 -96 0
-91 96 97 0
91 -97 0
-96 -97 0
91 -96 98 0
-91 -98 0
96 -98 0
97 98 99 0
-97 -99 0
-98 -99 0
-90 99 100 0
90 -100 0
-99 -100 0
98 95 101 0
-98 -101 0
-95 -101 0
102 103 104 0
-102 -104 0
-103 -104 0
-102 -103 105 0
102 -105 0
103 -105 0
104 105 106 0
-104 -106 0
-105 -106 0
-101 106 107 0
101 -107 0
-106 -107 0
101 -106 108 0
-101 -108 0
106 -108 0
107 108 109 0
-107 -109 0
-108 -109 0
-100 109 110 0
100 -110 0
-109 -110 0
108 105 111 0
-108 -111 0
-105 -111 0
112 113 114 0
-112 -114 0
-113 -114 0
-112 -113 115 0
112 -115 0
113 -115 0
114 115 116 0
-114 -116 0
-115 -116 0
-111 116 117 0
111 -117 0
-116 -117 0
111 -116 118 0
-111 -118 0
116 -118 0
117 118 119 0
-117 -119 0
-118 -119 0
110 -119 120 0
-110 -120 0
119 -120 0
-64 120 121 0
64 -121 0
-120 -121 0
-110 119 122 0
110 -122 0
-119 -122 0
121 122 123 0
-121 -123 0
-122 -123 0
71 -79 124 0
-71 -124 0
79 -124 0
124 80 125 0
-124 -125 0
-80 -125 0
3 11 126 0
-3 -126 0
-11 -126 0
126 12 127 0
-126 -127 0
-12 -127 0
1 2 128 0
-1 -128 0
-2 -128 0
128 -70 129 0
-128 -129 0
70 -129 0
-129 3 130 0
129 -130 0
-3 -130 0
-69 -70 131 0
69 -131 0
70 -131 0
131 71 132 0
-131 -132 0
-71 -132 0
130 132 133 0
-130 -133 0
-132 -133 0
-127 133 134 0
127 -134 0
-133 -134 0
-130 -132 135 0
130 -135 0
132 -135 0
134 135 136 0
-134 -136 0
-135 -136 0
-13 21 137 0
13 -137 0
-21 -137 0
137 22 138 0
-137 -138 0
-22 -138 0
-136 138 139 0
136 -139 0
-138 -139 0
-125 139 140 0
125 -140 0
-139 -140 0
136 -138 141 0
-136 -141 0
138 -141 0
140 141 142 0
-140 -142 0
-141 -142 0
-23 31 143 0
23 -143 0
-31 -143 0
143 32 144 0
-143 -144 0
-32 -144 0
80 -89 145 0
-80 -145 0
89 -145 0
145 90 146 0
-145 -146 0
-90 -146 0
-144 -146 147 0
144 -147 0
146 -147 0
-142 147 148 0
142 -148 0
-147 -148 0
144 146 149 0
-144 -149 0
-146 -149 0
148 149 150 0
-148 -150 0
-149 -150 0
-33 41 151 0
33 -151 0
-41 -151 0
151 42 152 0
-151 -152 0
-42 -152 0
90 -99 153 0
-90 -153 0
99 -153 0
153 100 154 0
-153 -154 0
-100 -154 0
152 154 155 0
-152 -155 0
-154 -155 0
-150 155 156 0
150 -156 0
-155 -156 0
-152 -154 157 0
152 -157 0
154 -157 0
156 157 158 0
-156 -158 0
-157 -158 0
-43 51 159 0
43 -159 0
-51 -159 0
159 52 160 0
-159 -160 0
-52 -160 0
100 -109 161 0
-100 -161 0
109 -161 0
161 110 162 0
-161 -162 0
-110 -162 0
-160 -162 163 0
160 -163 0
162 -163 0
-158 163 164 0
158 -164 0
-163 -164 0
160 162 165 0
-160 -165 0
-162 -165 0
164 165 166 0
-164 -166 0
-165 -166 0
120 122 167 0
-120 -167 0
-122 -167 0
64 167 168 0
-64 -168 0
-167 -168 0
-166 168 169 0
166 -169 0
-168 -169 0
-123 169 170 0
123 -170 0
-169 -170 0
-171 172 173 0
171 -173 0
-172 -173 0
171 -172 174 0
-171 -174 0
172 -174 0
173 174 175 0
-173 -175 0
-174 -175 0
118 115 176 0
-118 -176 0
-115 -176 0
175 176 177 0
-175 -177 0
-176 -177 0
-175 -176 178 0
175 -178 0
176 -178 0
177 178 179 0
-177 -179 0
-178 -179 0
-180 -181 182 0
180 -182 0
181 -182 0
180 181 183 0
-180 -183 0
-181 -183 0
182 183 184 0
-182 -184 0
-183 -184 0
-184 56 185 0
184 -185 0
-56 -185 0
184 -56 186 0
-184 -186 0
56 -186 0
185 186 187 0
-185 -187 0
-186 -187 0
63 60 188 0
-63 -188 0
-60 -188 0
187 188 189 0
-187 -189 0
-188 -189 0
-187 -188 190 0
187 -190 0
188 -190 0
189 190 191 0
-189 -191 0
-190 -191 0
179 191 192 0
-179 -192 0
-191 -192 0
170 192 193 0
-170 -193 0
-192 -193 0
-179 -191 194 0
179 -194 0
191 -194 0
193 194 195 0
-193 -195 0
-194 -195 0
-169 -122 196 0
169 -196 0
122 -196 0
-195 196 197 0
195 -197 0
-196 -197 0
-194 -196 198 0
194 -198 0
196 -198 0
197 198 199 0
-197 -199 0
-198 -199 0
-199 0
